p edge 112 449
e 1 2
e 1 5
e 1 9
e 1 16
e 1 24
e 1 25
e 1 33
e 1 35
e 1 49
e 1 50
e 1 75
e 1 82
e 1 88
e 2 3
e 2 7
e 2 9
e 2 16
e 2 23
e 2 25
e 2 28
e 2 33
e 2 39
e 2 43
e 2 45
e 2 50
e 2 53
e 2 59
e 2 62
e 2 69
e 2 83
e 3 5
e 3 6
e 3 9
e 3 15
e 3 20
e 3 22
e 3 23
e 3 27
e 3 31
e 3 42
e 3 48
e 3 62
e 3 63
e 3 64
e 3 65
e 3 69
e 3 84
e 3 85
e 3 86
e 3 95
e 3 96
e 4 6
e 4 8
e 4 10
e 4 18
e 4 39
e 4 72
e 4 78
e 4 98
e 5 9
e 5 11
e 5 14
e 5 19
e 5 22
e 5 25
e 5 33
e 5 42
e 5 43
e 5 47
e 5 48
e 5 55
e 5 58
e 5 85
e 5 104
e 6 7
e 6 18
e 6 44
e 6 51
e 6 70
e 6 71
e 6 73
e 6 77
e 6 84
e 6 89
e 6 91
e 6 97
e 6 98
e 7 14
e 7 21
e 7 22
e 7 28
e 7 31
e 7 39
e 7 42
e 7 44
e 7 48
e 7 53
e 7 55
e 7 57
e 7 58
e 8 10
e 8 32
e 8 35
e 8 60
e 8 67
e 8 78
e 8 106
e 9 25
e 9 38
e 9 43
e 9 47
e 9 58
e 9 62
e 9 69
e 9 81
e 9 83
e 9 85
e 9 95
e 9 96
e 10 25
e 10 29
e 10 38
e 10 66
e 11 14
e 11 19
e 11 22
e 11 24
e 11 26
e 11 32
e 11 34
e 11 42
e 11 47
e 11 55
e 11 57
e 11 60
e 11 63
e 11 67
e 11 87
e 12 14
e 12 16
e 12 18
e 12 21
e 12 26
e 12 32
e 12 34
e 12 57
e 12 64
e 12 79
e 12 80
e 12 90
e 12 91
e 12 101
e 13 15
e 13 17
e 13 20
e 13 23
e 13 24
e 13 27
e 13 29
e 13 30
e 13 46
e 13 47
e 13 53
e 13 62
e 13 69
e 13 75
e 14 19
e 14 21
e 14 23
e 14 41
e 14 42
e 14 55
e 14 93
e 15 17
e 15 24
e 15 29
e 15 30
e 15 56
e 15 82
e 15 92
e 16 18
e 16 29
e 16 50
e 16 53
e 16 54
e 16 77
e 16 91
e 16 94
e 17 25
e 17 35
e 17 40
e 17 43
e 17 46
e 17 54
e 17 56
e 17 80
e 18 41
e 18 44
e 18 51
e 18 52
e 18 71
e 18 77
e 18 79
e 18 91
e 19 22
e 19 23
e 19 24
e 19 30
e 19 40
e 19 42
e 19 43
e 19 48
e 19 55
e 20 23
e 20 27
e 20 31
e 20 44
e 20 47
e 20 51
e 20 63
e 20 64
e 20 65
e 20 74
e 20 75
e 20 76
e 20 86
e 20 89
e 20 103
e 21 26
e 21 32
e 21 34
e 21 57
e 21 64
e 21 90
e 21 93
e 22 48
e 22 55
e 22 58
e 22 69
e 22 74
e 22 85
e 22 99
e 22 105
e 23 31
e 23 55
e 23 62
e 23 63
e 23 64
e 23 65
e 23 69
e 23 75
e 23 86
e 24 26
e 24 30
e 24 32
e 24 60
e 24 63
e 24 67
e 24 87
e 24 88
e 25 43
e 25 56
e 25 83
e 26 32
e 26 34
e 26 36
e 26 47
e 26 56
e 26 60
e 26 63
e 26 64
e 26 67
e 26 87
e 26 90
e 27 37
e 27 38
e 27 47
e 27 86
e 27 87
e 28 36
e 28 39
e 28 45
e 28 49
e 28 61
e 28 81
e 29 30
e 29 46
e 29 53
e 30 34
e 30 46
e 30 53
e 30 73
e 30 102
e 31 42
e 31 48
e 31 57
e 31 63
e 31 64
e 31 65
e 31 86
e 32 57
e 32 60
e 32 63
e 32 67
e 32 87
e 33 37
e 33 45
e 34 47
e 34 60
e 34 63
e 34 64
e 34 73
e 34 90
e 34 102
e 35 40
e 35 43
e 35 49
e 35 78
e 36 41
e 36 45
e 36 56
e 36 68
e 36 97
e 36 100
e 37 45
e 37 81
e 37 93
e 38 61
e 38 62
e 38 87
e 39 40
e 39 54
e 39 72
e 39 78
e 40 43
e 40 49
e 40 54
e 40 88
e 40 92
e 41 68
e 41 79
e 42 44
e 42 64
e 42 70
e 42 84
e 43 49
e 43 54
e 43 58
e 43 83
e 43 85
e 44 65
e 44 70
e 44 77
e 44 89
e 45 49
e 45 56
e 45 61
e 45 81
e 45 93
e 46 53
e 46 80
e 47 58
e 47 60
e 47 63
e 47 85
e 48 57
e 48 85
e 49 61
e 49 81
e 50 53
e 50 77
e 50 94
e 51 52
e 51 70
e 51 71
e 51 73
e 51 76
e 51 89
e 51 103
e 52 66
e 52 70
e 52 71
e 53 77
e 54 94
e 54 110
e 55 58
e 55 69
e 55 74
e 55 99
e 55 105
e 58 62
e 58 69
e 58 74
e 58 85
e 58 99
e 58 105
e 59 61
e 59 83
e 60 63
e 60 67
e 60 87
e 61 62
e 61 81
e 62 69
e 62 75
e 62 82
e 63 64
e 63 65
e 63 86
e 63 87
e 64 65
e 64 84
e 64 86
e 64 90
e 65 86
e 65 89
e 68 100
e 69 74
e 69 75
e 69 99
e 69 105
e 70 71
e 70 73
e 71 73
e 71 80
e 72 78
e 73 89
e 73 102
e 74 75
e 74 84
e 74 90
e 74 99
e 74 105
e 75 82
e 76 103
e 77 97
e 79 101
e 79 111
e 82 92
e 84 90
e 88 92
e 88 112
e 94 110
e 95 96
e 97 100
e 99 105
e 107 108
e 107 109
e 108 109
